
Gurobi 9.0.2 (win64) logging started Sun Dec 27 04:38:27 2020

Changed value of parameter logfile to result\SunCable-20201227T0415\scenario_2030_m30_cab4000.log
   Prev:   Default: 
Gurobi Optimizer version 9.0.2 build v9.0.2rc0 (win64)
Optimize a model with 1243974 rows, 762167 columns and 3491691 nonzeros
Model fingerprint: 0x1daab43a
Coefficient statistics:
  Matrix range     [1e-07, 4e+05]
  Objective range  [1e+00, 1e+00]
  Bounds range     [0e+00, 0e+00]
  RHS range        [2e-05, 3e+08]
Warning: Model contains large matrix coefficient range
         Consider reformulating model or setting NumericFocus parameter
         to avoid numerical issues.

Concurrent LP optimizer: primal simplex, dual simplex, and barrier
Showing barrier log only...

Presolve removed 1068997 rows and 595935 columns
Presolve time: 2.65s
Presolved: 174977 rows, 280098 columns, 652320 nonzeros

Ordering time: 0.08s

Barrier statistics:
 Dense cols : 5
 AA' NZ     : 6.422e+05
 Factor NZ  : 3.150e+06 (roughly 200 MBytes of memory)
 Factor Ops : 7.040e+07 (less than 1 second per iteration)
 Threads    : 30

                  Objective                Residual
Iter       Primal          Dual         Primal    Dual     Compl     Time
   0  -2.53633084e+16 -1.07293379e+15  7.40e+06 2.54e+04  3.04e+12     3s
   1  -5.47921757e+15 -1.08612307e+15  1.59e+06 4.56e+06  8.56e+11     3s
   2  -1.76564125e+15 -1.02453751e+15  5.15e+05 8.53e+05  2.47e+11     4s
   3  -3.45538548e+14 -8.99227364e+14  1.02e+05 1.35e+05  4.94e+10     4s
   4  -7.78062555e+13 -5.53452896e+14  2.21e+04 3.71e+04  1.18e+10     4s
   5  -2.42031160e+13 -3.72895368e+14  7.03e+03 1.83e+04  4.52e+09     4s
   6  -7.22789032e+12 -2.70256078e+14  2.30e+03 9.76e+03  1.97e+09     5s
   7  -2.29904283e+12 -1.02633694e+14  8.56e+02 8.46e+02  4.49e+08     5s
   8   5.04916946e+11 -2.87564525e+13  2.09e+01 4.40e+01  5.76e+07     5s
   9   3.39748367e+11 -2.35900031e+12  2.23e+00 3.52e+00  5.04e+06     5s
  10   1.23259035e+11 -9.84345393e+11  4.64e-01 1.23e+00  2.00e+06     6s
  11   5.26183165e+10 -3.93133515e+11  1.57e-01 3.44e-01  7.96e+05     6s
  12   1.94211919e+10 -1.40470119e+11  3.64e-02 5.59e-09  2.83e+05     6s
  13   1.25771982e+10 -5.74170507e+10  1.11e-02 7.45e-09  1.24e+05     6s
  14   1.03249660e+10 -7.90346642e+09  4.97e-03 9.31e-09  3.22e+04     7s
  15   9.18208756e+09  2.13581173e+08  2.37e-03 7.45e-09  1.58e+04     7s
  16   8.55282212e+09  2.05693530e+09  1.03e-03 5.59e-09  1.14e+04     7s
  17   8.19938556e+09  3.51622379e+09  3.48e-04 5.59e-09  8.24e+03     7s
  18   8.13562104e+09  5.39739129e+09  2.46e-04 4.66e-09  4.82e+03     8s
  19   8.08471967e+09  5.63143805e+09  1.66e-04 3.73e-09  4.32e+03     8s
  20   8.05429179e+09  5.78894858e+09  1.20e-04 3.73e-09  3.99e+03     8s
  21   8.01154887e+09  6.61531749e+09  6.70e-05 2.79e-09  2.46e+03     8s
  22   7.99468152e+09  6.89803585e+09  5.09e-05 2.79e-09  1.93e+03     9s
  23   7.98105786e+09  7.12063828e+09  3.82e-05 2.79e-09  1.51e+03     9s
  24   7.97526553e+09  7.20676220e+09  3.28e-05 2.79e-09  1.35e+03     9s
  25   7.96746673e+09  7.28039622e+09  2.48e-05 2.79e-09  1.21e+03    10s
  26   7.95050504e+09  7.36454457e+09  9.65e-06 2.79e-09  1.03e+03    10s
  27   7.94303170e+09  7.42249731e+09  3.32e-06 2.79e-09  9.15e+02    10s
  28   7.94016445e+09  7.56973122e+09  2.23e-06 2.79e-09  6.51e+02    10s
  29   7.93918077e+09  7.60777823e+09  1.80e-06 1.86e-09  5.83e+02    11s
  30   7.93747607e+09  7.67334115e+09  1.05e-06 1.86e-09  4.64e+02    11s
  31   7.93686704e+09  7.69873586e+09  7.69e-07 1.86e-09  4.19e+02    11s
  32   7.93585369e+09  7.78415201e+09  4.22e-07 1.86e-09  2.67e+02    12s
  33   7.93549022e+09  7.79022508e+09  3.69e-07 1.86e-09  2.55e+02    12s
  34   7.93511140e+09  7.80259461e+09  3.15e-07 1.86e-09  2.33e+02    12s
  35   7.93477417e+09  7.83489241e+09  2.68e-07 2.79e-09  1.76e+02    13s
  36   7.93458295e+09  7.84569834e+09  2.42e-07 1.86e-09  1.56e+02    13s
  37   7.93445713e+09  7.84928077e+09  2.25e-07 2.79e-09  1.50e+02    13s
  38   7.93410446e+09  7.86750910e+09  1.71e-07 1.86e-09  1.17e+02    14s
  39   7.93379897e+09  7.87798325e+09  1.26e-07 1.86e-09  9.81e+01    14s
  40   7.93349230e+09  7.89485081e+09  9.47e-08 1.86e-09  6.79e+01    14s
  41   7.93325165e+09  7.90152787e+09  7.48e-08 1.86e-09  5.58e+01    15s
  42   7.93299802e+09  7.90646712e+09  2.08e-07 1.86e-09  4.67e+01    15s
  43   7.93284707e+09  7.90930043e+09  2.33e-07 1.86e-09  4.14e+01    15s
  44   7.93283528e+09  7.91406088e+09  1.50e-07 1.86e-09  3.30e+01    15s
  45   7.93282008e+09  7.91702775e+09  1.11e-07 1.86e-09  2.78e+01    16s
  46   7.93278535e+09  7.91870623e+09  8.23e-08 1.86e-09  2.48e+01    16s
  47   7.93277135e+09  7.92114015e+09  6.29e-08 1.86e-09  2.05e+01    16s
  48   7.93274344e+09  7.92611359e+09  6.05e-08 2.79e-09  1.17e+01    17s
  49   7.93270107e+09  7.92828860e+09  5.28e-08 1.86e-09  7.76e+00    17s
  50   7.93269365e+09  7.93014491e+09  5.34e-08 1.86e-09  4.48e+00    17s
  51   7.93269062e+09  7.93050244e+09  4.52e-08 1.86e-09  3.85e+00    17s
  52   7.93267656e+09  7.93103438e+09  2.90e-08 1.86e-09  2.89e+00    18s
  53   7.93267407e+09  7.93115345e+09  6.52e-08 1.86e-09  2.67e+00    18s
  54   7.93266620e+09  7.93138691e+09  1.65e-07 1.86e-09  2.25e+00    18s
  55   7.93266597e+09  7.93144633e+09  1.63e-07 1.86e-09  2.14e+00    18s
  56   7.93266567e+09  7.93157674e+09  1.61e-07 2.79e-09  1.91e+00    18s
  57   7.93266058e+09  7.93188789e+09  9.95e-08 1.86e-09  1.36e+00    19s
  58   7.93265725e+09  7.93202069e+09  9.04e-08 1.86e-09  1.12e+00    19s
  59   7.93265641e+09  7.93238316e+09  8.01e-08 1.86e-09  4.80e-01    19s
  60   7.93265525e+09  7.93257199e+09  1.03e-07 2.79e-09  1.46e-01    20s
  61   7.93265504e+09  7.93257597e+09  1.26e-07 2.79e-09  1.39e-01    20s
  62   7.93265446e+09  7.93258774e+09  1.66e-07 2.79e-09  1.17e-01    20s
  63   7.93265267e+09  7.93260450e+09  3.93e-07 1.86e-09  8.47e-02    20s
  64   7.93265294e+09  7.93265065e+09  3.02e-07 2.20e-07  4.03e-03    21s
  65   7.93265258e+09  7.93265118e+09  4.76e-05 1.68e-07  2.46e-03    21s

Barrier solved model in 65 iterations and 21.03 seconds
Optimal objective 7.93265258e+09

Crossover log...

   12059 DPushes remaining with DInf 0.0000000e+00                21s
       0 DPushes remaining with DInf 0.0000000e+00                23s
Warning: Markowitz tolerance tightened to 0.5

  135625 PPushes remaining with PInf 9.2651298e-05                23s
   60137 PPushes remaining with PInf 2.6668439e+00                34s
   22666 PPushes remaining with PInf 2.6499400e+00                35s
       0 PPushes remaining with PInf 0.0000000e+00                41s

  Push phase complete: Pinf 0.0000000e+00, Dinf 7.9479700e+03     41s

Iteration    Objective       Primal Inf.    Dual Inf.      Time
  147218    7.9326595e+09   0.000000e+00   7.947970e+03     41s
  148212    7.9326524e+09   0.000000e+00   0.000000e+00     44s

Solved with barrier
Solved in 148212 iterations and 44.48 seconds
Optimal objective  7.932652361e+09
Warning: unscaled primal violation = 0.000882362 and residual = 0.000882362
